container_length = 45;
container_width = 33;
container_height = 15;
n = 6;
boxes = [|3, 3, 3, 27
         |4, 4, 2, 25
         |10,3, 2, 9
         |5, 5, 2, 19
         |7, 2, 2, 13
         |8, 3, 2, 7|];
